Route #1: 0 75 78 70 47 38 0
Route #2: 0 127 119 63 52 88 66 91 0
Route #3: 0 15 89 82 113 50 0
Route #4: 0 3 20 124 30 44 0
Route #5: 0 9 94 68 4 128 112 106 0
Route #6: 0 42 32 72 126 65 105 79 85 61 101 107 0
Route #7: 0 110 92 95 10 76 40 58 29 0
Route #8: 0 80 87 98 81 36 122 123 0
Route #9: 0 115 71 73 96 114 16 0
Route #10: 0 74 14 97 51 12 108 104 11 17 26 0
Route #11: 0 118 109 120 8 69 125 0
Route #12: 0 24 53 99 84 1 18 64 86 0
Route #13: 0 39 62 77 60 23 90 0
Route #14: 0 27 7 121 117 28 0
Route #15: 0 83 31 37 49 116 41 100 102 0
Route #16: 0 5 111 45 6 19 54 43 25 0
Route #17: 0 56 57 46 21 34 2 55 48 0
Route #18: 0 93 67 22 33 13 35 59 103 0
Cost 36467:
